c Sudoku solution
p cnf 729 0
115 0
157 0
226 0
233 0
289 0
317 0
343 0
362 0
375 0
394 0
427 0
436 0
452 0
491 0
531 0
546 0
598 0
625 0
641 0
699 0
724 0
782 0
849 0
942 0
747 0
863 0
937 0
951 0
988 0
473 0
183 0
278 0
297 0
212 0
134 0
148 0
261 0
192 0
445 0
484 0
585 0
244 0
255 0
895 0
735 0
965 0
854 0
974 0
779 0
711 0
793 0
996 0
816 0
339 0
328 0
121 0
176 0
381 0
169 0
356 0
822 0
838 0
632 0
572 0
567 0
514 0
664 0
758 0
766 0
653 0
559 0
468 0
419 0
618 0
523 0
913 0
929 0
871 0
887 0
677 0
686 0
